NAME: cum70.tsp
TYPE: TSP
COMMENT: User-generated TSP file
DIMENSION: 70
EDGE_WEIGHT_TYPE: EUC_2D
NODE_COORD_SECTION
1 49.0 56.0
2 37.0 57.0
3 39.0 44.0
4 45.0 40.0
5 46.0 44.0
6 16.0 28.0
7 70.0 17.0
8 61.0 51.0
9 17.0 7.0
10 63.0 27.0
11 57.0 20.0
12 41.0 24.0
13 19.0 33.0
14 65.0 39.0
15 30.0 51.0
16 10.0 28.0
17 3.0 4.0
18 65.0 66.0
19 8.0 61.0
20 8.0 36.0
21 33.0 9.0
22 22.0 47.0
23 53.0 9.0
24 7.0 14.0
25 50.0 11.0
26 49.0 18.0
27 63.0 10.0
28 9.0 27.0
29 28.0 36.0
30 61.0 51.0
31 67.0 6.0
32 46.0 64.0
33 22.0 60.0
34 40.0 35.0
35 44.0 55.0
36 33.0 38.0
37 47.0 3.0
38 48.0 39.0
39 3.0 16.0
40 18.0 27.0
41 16.0 8.0
42 25.0 60.0
43 65.0 22.0
44 28.0 13.0
45 56.0 64.0
46 60.0 54.0
47 22.0 22.0
48 35.0 19.0
49 25.0 2.0
50 66.0 35.0
51 8.0 15.0
52 31.0 41.0
53 5.0 49.0
54 69.0 49.0
55 7.0 24.0
56 2.0 31.0
57 33.0 26.0
58 31.0 45.0
59 26.0 44.0
60 26.0 14.0
61 27.0 50.0
62 39.0 7.0
63 49.0 67.0
64 16.0 11.0
65 4.0 61.0
66 11.0 18.0
67 35.0 4.0
68 56.0 7.0
69 9.0 52.0
70 35.0 49.0
EOF





